p cnf 60 248
1 2 3 0
4 5 6 0
7 8 9 0
10 11 12 0
13 14 15 0
16 17 18 0
19 20 21 0
22 23 24 0
25 26 27 0
28 29 30 0
31 32 33 0
34 35 36 0
37 38 39 0
40 41 42 0
43 44 45 0
46 47 48 0
49 50 51 0
52 53 54 0
55 56 57 0
58 59 60 0
-1 -2 0
-1 -3 0
-2 -3 0
-4 -5 0
-4 -6 0
-5 -6 0
-7 -8 0
-7 -9 0
-8 -9 0
-10 -11 0
-10 -12 0
-11 -12 0
-13 -14 0
-13 -15 0
-14 -15 0
-16 -17 0
-16 -18 0
-17 -18 0
-19 -20 0
-19 -21 0
-20 -21 0
-22 -23 0
-22 -24 0
-23 -24 0
-25 -26 0
-25 -27 0
-26 -27 0
-28 -29 0
-28 -30 0
-29 -30 0
-31 -32 0
-31 -33 0
-32 -33 0
-34 -35 0
-34 -36 0
-35 -36 0
-37 -38 0
-37 -39 0
-38 -39 0
-40 -41 0
-40 -42 0
-41 -42 0
-43 -44 0
-43 -45 0
-44 -45 0
-46 -47 0
-46 -48 0
-47 -48 0
-49 -50 0
-49 -51 0
-50 -51 0
-52 -53 0
-52 -54 0
-53 -54 0
-55 -56 0
-55 -57 0
-56 -57 0
-58 -59 0
-58 -60 0
-59 -60 0
-1 -34 0
-1 -40 0
-1 -58 0
-4 -19 0
-4 -31 0
-7 -19 0
-7 -34 0
-7 -37 0
-10 -37 0
-10 -52 0
-10 -55 0
-13 -37 0
-13 -52 0
-13 -58 0
-16 -22 0
-16 -31 0
-16 -49 0
-19 -4 0
-19 -7 0
-22 -16 0
-22 -25 0
-22 -31 0
-25 -22 0
-25 -43 0
-25 -58 0
-28 -40 0
-28 -43 0
-31 -4 0
-31 -16 0
-31 -22 0
-34 -1 0
-34 -7 0
-34 -40 0
-37 -7 0
-37 -10 0
-37 -13 0
-40 -1 0
-40 -28 0
-40 -34 0
-43 -25 0
-43 -28 0
-46 -49 0
-46 -52 0
-46 -55 0
-49 -16 0
-49 -46 0
-49 -55 0
-52 -10 0
-52 -13 0
-52 -46 0
-55 -10 0
-55 -46 0
-55 -49 0
-58 -1 0
-58 -13 0
-58 -25 0
-2 -35 0
-2 -41 0
-2 -59 0
-5 -20 0
-5 -32 0
-8 -20 0
-8 -35 0
-8 -38 0
-11 -38 0
-11 -53 0
-11 -56 0
-14 -38 0
-14 -53 0
-14 -59 0
-17 -23 0
-17 -32 0
-17 -50 0
-20 -5 0
-20 -8 0
-23 -17 0
-23 -26 0
-23 -32 0
-26 -23 0
-26 -44 0
-26 -59 0
-29 -41 0
-29 -44 0
-32 -5 0
-32 -17 0
-32 -23 0
-35 -2 0
-35 -8 0
-35 -41 0
-38 -8 0
-38 -11 0
-38 -14 0
-41 -2 0
-41 -29 0
-41 -35 0
-44 -26 0
-44 -29 0
-47 -50 0
-47 -53 0
-47 -56 0
-50 -17 0
-50 -47 0
-50 -56 0
-53 -11 0
-53 -14 0
-53 -47 0
-56 -11 0
-56 -47 0
-56 -50 0
-59 -2 0
-59 -14 0
-59 -26 0
-3 -36 0
-3 -42 0
-3 -60 0
-6 -21 0
-6 -33 0
-9 -21 0
-9 -36 0
-9 -39 0
-12 -39 0
-12 -54 0
-12 -57 0
-15 -39 0
-15 -54 0
-15 -60 0
-18 -24 0
-18 -33 0
-18 -51 0
-21 -6 0
-21 -9 0
-24 -18 0
-24 -27 0
-24 -33 0
-27 -24 0
-27 -45 0
-27 -60 0
-30 -42 0
-30 -45 0
-33 -6 0
-33 -18 0
-33 -24 0
-36 -3 0
-36 -9 0
-36 -42 0
-39 -9 0
-39 -12 0
-39 -15 0
-42 -3 0
-42 -30 0
-42 -36 0
-45 -27 0
-45 -30 0
-48 -51 0
-48 -54 0
-48 -57 0
-51 -18 0
-51 -48 0
-51 -57 0
-54 -12 0
-54 -15 0
-54 -48 0
-57 -12 0
-57 -48 0
-57 -51 0
-60 -3 0
-60 -15 0
-60 -27 0
